250
378
217
288
228
27
220
340
255
200
150
47
288
175
301
128
245
390
112
180
350
364
246
31
240
370
182
132
264
200
120
87
322
108
175
84
62
245
114
135
180
238
153
246
270
282
185
78
86
288
450
39
252
368
350
520
84
310
336
111
108
220
66
510
400
203
235
144
100
387
192
196
114
140
360
102
312
41
180
432
148
104
176
165
200
39
116
92
70
150
378
248
343
38
162
220
204
408
280
300
